63 50 31 38 49 96 11 13 27 15 55 51 19 57 93 64 89 3 75 0 52 9 22 68 91 40 2 36 28 10 71 69 61 25 17 67 20 7 44 24 45 14 16 66 97 84 26 60 73 39 35 5 1 74 46 76 78 30 21 37 8 33 86 59 4 70 47 79 58 94 98 53 12 32 88 87 48 41 90 43 29 85 80 92 95 6 56 82 77 72 99 54 65 23 34 18 81 42 83 62 

